c Sudoku solution
p cnf 729 0
116 0
128 0
144 0
247 0
251 0
299 0
321 0
333 0
418 0
473 0
548 0
564 0
589 0
614 0
626 0
632 0
669 0
749 0
783 0
193 0
263 0
797 0
822 0
867 0
871 0
979 0
429 0
181 0
898 0
982 0
996 0
711 0
375 0
774 0
885 0
725 0
224 0
235 0
212 0
515 0
523 0
927 0
913 0
819 0
317 0
139 0
177 0
392 0
384 0
359 0
368 0
346 0
442 0
843 0
653 0
572 0
591 0
695 0
494 0
486 0
556 0
457 0
465 0
641 0
431 0
537 0
945 0
961 0
155 0
162 0
752 0
766 0
854 0
958 0
738 0
836 0
934 0
276 0
288 0
678 0
687 0
